p edge 100 240
e 1 97
e 1 81
e 1 69
e 1 70
e 1 82
e 1 41
e 1 42
e 1 49
e 1 50
e 1 89
e 1 98
e 1 90
e 1 74
e 1 25
e 1 26
e 1 93
e 1 94
e 1 73
e 2 84
e 2 76
e 2 99
e 2 71
e 2 72
e 2 92
e 2 43
e 2 44
e 2 83
e 2 100
e 2 51
e 2 52
e 2 91
e 2 27
e 2 28
e 2 75
e 2 95
e 2 96
e 3 77
e 3 78
e 3 53
e 3 54
e 3 85
e 3 61
e 3 62
e 3 86
e 4 87
e 4 88
e 4 79
e 4 80
e 4 55
e 4 56
e 4 63
e 4 64
e 5 65
e 5 66
e 5 99
e 5 41
e 5 97
e 5 43
e 5 77
e 5 79
e 5 29
e 5 30
e 6 98
e 6 67
e 6 68
e 6 42
e 6 44
e 6 78
e 6 80
e 6 100
e 6 31
e 6 32
e 7 33
e 7 34
e 7 69
e 7 71
e 7 41
e 7 61
e 7 44
e 7 53
e 7 63
e 7 55
e 7 57
e 7 58
e 7 29
e 7 31
e 8 35
e 8 36
e 8 70
e 8 72
e 8 42
e 8 43
e 8 64
e 8 62
e 8 54
e 8 56
e 8 59
e 8 60
e 8 30
e 8 32
e 9 45
e 9 46
e 9 49
e 9 51
e 9 21
e 9 22
e 9 61
e 9 64
e 10 47
e 10 48
e 10 50
e 10 52
e 10 23
e 10 24
e 10 62
e 10 63
e 11 33
e 11 35
e 11 37
e 11 38
e 11 81
e 11 89
e 11 83
e 11 21
e 11 23
e 11 56
e 11 25
e 11 53
e 11 27
e 11 91
e 12 34
e 12 36
e 12 39
e 12 40
e 12 90
e 12 82
e 12 92
e 12 84
e 12 22
e 12 55
e 12 24
e 12 26
e 12 28
e 12 54
e 13 65
e 13 67
e 13 37
e 13 39
e 13 73
e 13 75
e 13 45
e 13 47
e 13 93
e 13 95
e 14 66
e 14 68
e 14 38
e 14 40
e 14 74
e 14 76
e 14 46
e 14 48
e 14 94
e 14 96
e 15 69
e 15 72
e 15 73
e 15 76
e 15 77
e 15 80
e 15 49
e 15 52
e 15 21
e 15 87
e 15 24
e 15 89
e 15 85
e 15 92
e 15 29
e 15 32
e 16 70
e 16 71
e 16 74
e 16 75
e 16 78
e 16 79
e 16 50
e 16 51
e 16 22
e 16 23
e 16 88
e 16 90
e 16 91
e 16 30
e 16 31
e 16 86
e 17 33
e 17 65
e 17 84
e 17 36
e 17 37
e 17 40
e 17 97
e 17 45
e 17 48
e 17 81
e 17 100
e 17 68
e 17 57
e 17 59
e 17 93
e 17 96
e 18 34
e 18 35
e 18 67
e 18 38
e 18 39
e 18 66
e 18 46
e 18 47
e 18 82
e 18 83
e 18 98
e 18 58
e 18 99
e 18 60
e 18 94
e 18 95
e 19 60
e 19 57
e 19 85
e 19 88
e 19 25
e 19 28
e 20 86
e 20 87
e 20 58
e 20 26
e 20 27
e 20 59